JulietBench/Juliet_Based_Patch_Bench/linux/CWE-189-Numeric-Errors/CVE_2007_4997_04045f98e0457aba7d4e6736f37eed189c48a5f7/Resultieee80211_rx_Snippet_patch1EQ.smt2
; benchmark generated from python API
(set-info :status unknown)
(declare-fun R () (_ BitVec 32))
(declare-fun rdi () (_ BitVec 64))
(declare-fun rsi () (_ BitVec 64))
(assert
 (let (($x867 (= (_ bv4294967295 32) R)))
 (let ((?x6 ((_ extract 31 0) rdi)))
 (let (($x13 (bvsge (_ bv9 32) ?x6)))
 (let (($x868 (and $x13 $x867)))
 (let (($x43 (bvslt (_ bv9 32) ?x6)))
 (let ((?x8 ((_ extract 31 0) rsi)))
 (let (($x444 (bvslt ?x6 ?x8)))
 (let (($x872 (and $x444 $x43 $x867)))
 (let (($x864 (= R ?x6)))
 (let (($x367 (bvsge ?x6 ?x8)))
 (let ((?x47 (bvadd ?x8 (_ bv2 32))))
 (let (($x58 (bvsle ?x6 ?x47)))
 (let (($x871 (and $x58 $x367 $x43 $x864)))
 (let (($x368 (= R ?x8)))
 (let (($x447 (bvsgt ?x6 ?x47)))
 (let (($x870 (and $x447 $x367 $x43 $x368)))
 (let (($x873 (or $x870 $x871 $x872 $x868)))
 (let (($x865 (and $x58 $x43 $x864)))
 (let (($x863 (and $x447 $x43 $x368)))
 (let (($x869 (or $x863 $x865 $x868)))
 (and $x869 $x873))))))))))))))))))))))
(check-sat)
